n = 57;
rows = 122;
supports = [|
  {1},2..6,
 |{1},53..57,
 |{2},{1},
 |{2},3..7,
 |{2},54..57,
 |{3},1..2,
 |{3},4..8,
 |{3},55..57,
 |{4},1..3,
 |{4},5..9,
 |{4},56..57,
 |{5},1..4,
 |{5},6..10,
 |{5},{57},
 |{6},1..5,
 |{6},7..11,
 |{7},2..6,
 |{7},8..12,
 |{8},3..7,
 |{8},9..13,
 |{9},4..8,
 |{9},10..14,
 |{10},5..9,
 |{10},11..15,
 |{11},6..10,
 |{11},12..16,
 |{12},7..11,
 |{12},13..17,
 |{13},8..12,
 |{13},14..18,
 |{14},9..13,
 |{14},15..19,
 |{15},10..14,
 |{15},16..20,
 |{16},11..15,
 |{16},17..21,
 |{17},12..16,
 |{17},18..22,
 |{18},13..17,
 |{18},19..23,
 |{19},14..18,
 |{19},20..24,
 |{20},15..19,
 |{20},21..25,
 |{21},16..20,
 |{21},22..26,
 |{22},17..21,
 |{22},23..27,
 |{23},18..22,
 |{23},24..28,
 |{24},19..23,
 |{24},25..29,
 |{25},20..24,
 |{25},26..30,
 |{26},21..25,
 |{26},27..31,
 |{27},22..26,
 |{27},28..32,
 |{28},23..27,
 |{28},29..33,
 |{29},24..28,
 |{29},30..34,
 |{30},25..29,
 |{30},31..35,
 |{31},26..30,
 |{31},32..36,
 |{32},27..31,
 |{32},33..37,
 |{33},28..32,
 |{33},34..38,
 |{34},29..33,
 |{34},35..39,
 |{35},30..34,
 |{35},36..40,
 |{36},31..35,
 |{36},37..41,
 |{37},32..36,
 |{37},38..42,
 |{38},33..37,
 |{38},39..43,
 |{39},34..38,
 |{39},40..44,
 |{40},35..39,
 |{40},41..45,
 |{41},36..40,
 |{41},42..46,
 |{42},37..41,
 |{42},43..47,
 |{43},38..42,
 |{43},44..48,
 |{44},39..43,
 |{44},45..49,
 |{45},40..44,
 |{45},46..50,
 |{46},41..45,
 |{46},47..51,
 |{47},42..46,
 |{47},48..52,
 |{48},43..47,
 |{48},49..53,
 |{49},44..48,
 |{49},50..54,
 |{50},45..49,
 |{50},51..55,
 |{51},46..50,
 |{51},52..56,
 |{52},47..51,
 |{52},53..57,
 |{53},48..52,
 |{53},54..57,
 |{53},{1},
 |{54},49..53,
 |{54},55..57,
 |{54},1..2,
 |{55},50..54,
 |{55},56..57,
 |{55},1..3,
 |{56},51..55,
 |{56},{57},
 |{56},1..4,
 |{57},52..56,
 |{57},1..5 |];

t = 127;

indexes = [|
    0,18,
  | 1,43,
  | 1,49,
  | 2,15,
  | 2,23,
  | 2,33,
  | 3,11,
  | 3,18,
  | 3,28,
  | 3,47,
  | 3,50,
  | 3,51,
  | 3,52,
  | 3,56,
  | 4,5,
  | 4,6,
  | 4,7,
  | 4,26,
  | 4,36,
  | 5,6,
  | 5,7,
  | 5,26,
  | 5,30,
  | 5,32,
  | 6,7,
  | 6,26,
  | 6,30,
  | 6,32,
  | 7,9,
  | 7,14,
  | 7,24,
  | 7,26,
  | 7,31,
  | 7,36,
  | 7,37,
  | 8,13,
  | 8,16,
  | 8,19,
  | 8,25,
  | 8,29,
  | 9,36,
  | 9,37,
  | 10,40,
  | 10,44,
  | 11,18,
  | 11,30,
  | 11,56,
  | 12,22,
  | 13,16,
  | 13,17,
  | 13,19,
  | 13,25,
  | 13,40,
  | 14,24,
  | 14,31,
  | 15,23,
  | 15,55,
  | 16,19,
  | 16,25,
  | 16,29,
  | 16,41,
  | 16,42,
  | 16,48,
  | 16,53,
  | 16,54,
  | 17,25,
  | 17,40,
  | 18,30,
  | 18,56,
  | 19,25,
  | 19,29,
  | 20,23,
  | 20,34,
  | 20,35,
  | 20,38,
  | 20,45,
  | 21,28,
  | 21,34,
  | 21,44,
  | 21,45,
  | 21,50,
  | 21,52,
  | 22,27,
  | 22,50,
  | 22,52,
  | 23,33,
  | 23,34,
  | 23,35,
  | 23,38,
  | 23,45,
  | 23,46,
  | 23,55,
  | 25,40,
  | 26,36,
  | 27,50,
  | 27,52,
  | 28,34,
  | 28,44,
  | 28,45,
  | 28,47,
  | 28,50,
  | 28,52,
  | 29,42,
  | 30,32,
  | 30,51,
  | 30,56,
  | 31,37,
  | 32,50,
  | 32,52,
  | 33,46,
  | 34,38,
  | 34,45,
  | 35,38,
  | 35,46,
  | 38,45,
  | 39,40,
  | 41,48,
  | 42,54,
  | 47,56,
  | 48,53,
  | 49,50,
  | 49,52,
  | 50,52,
  | 50,56,
  | 51,56,
  | 52,56,
  | 53,54 |];

